50
120
94
93
91
90
90
88
87
82
77
75
72
71
70
70
69
69
66
65
63
59
57
56
53
51
48
48
48
47
44
44
43
42
41
40
39
38
37
36
36
32
31
31
29
29
27
23
23
21
20
20
